p cnf 134
-4 -38
-5 -41
-6 -44
-7 -46
-8 -48
-9 -50
-10 51
-11 -5
-11 6
5 -6 11
-12 5
-12 -6
-5 6 12
-13 -11
-13 -12
11 12 13
-14 -1
-14 -2
1 2 14
-15 -3
-15 14
3 -14 15
-16 -7
-16 -8
7 8 16
-17 -9
-17 16
9 -16 17
-18 7
-18 -13
-7 13 18
-19 -7
-19 13
7 -13 19
-20 -18
-20 -19
18 19 20
-21 4
-21 8
-4 -8 21
-22 -4
-22 -8
4 8 22
-23 -21
-23 -22
21 22 23
-24 5
-24 9
-5 -9 24
-25 -5
-25 -9
5 9 25
-26 -24
-26 -25
24 25 26
-27 -20
-27 -23
20 23 27
-28 -26
-28 27
26 -27 28
-29 -17
-29 28
17 -28 29
-30 10
-30 29
-10 -29 30
-31 15
-31 30
-15 -30 31
-32 -4
-32 13
4 -13 32
-33 -5
-33 32
5 -32 33
-34 -17
-34 33
17 -33 34
-35 15
-35 -29
-15 29 35
-36 1
-36 -15
-1 15 36
-37 -13
-37 15
13 -15 37
-38 -36
-38 -37
36 37 38
-39 2
-39 -15
-2 15 39
-40 4
-40 15
-4 -15 40
-41 -39
-41 -40
39 40 41
-42 3
-42 -15
-3 15 42
-43 5
-43 15
-5 -15 43
-44 -42
-44 -43
42 43 44
-45 7
-45 15
-7 -15 45
-46 -36
-46 -45
36 45 46
-47 8
-47 15
-8 -15 47
-48 -39
-48 -47
39 47 48
-49 9
-49 15
-9 -15 49
-50 -42
-50 -49
42 49 50
-51 -10
-51 35
10 -35 51
-52 -31
-52 -34
31 34 52
-52
